
#######################################################################
#
#                 Cambridge Crystallographic Data Centre
#                                CCDC
#
#######################################################################
#
# If this CIF has been generated from an entry in the Cambridge
# Structural Database, then it will include bibliographic, chemical,
# crystal, experimental, refinement or atomic coordinate data resulting
# from the CCDC's data processing and validation procedures.
#
#######################################################################

data_CSD_CIF_RATDAS01
_audit_creation_date 2006-01-31
_audit_creation_method CSD-ConQuest-V1
_database_code_CSD RATDAS01
_database_code_depnum_ccdc_archive 'CCDC 263265'
_chemical_formula_sum 'C12 H12 O24 Zn6'
_chemical_formula_moiety
;
(C12 H12 O24 Zn6)n
;
_journal_coden_Cambridge 29
_journal_volume 631
_journal_year 2005
_journal_page_first 2365
_journal_name_full 'Z.Anorg.Allg.Chem. '
loop_
_publ_author_name
"M.Viertelhaus"
"C.E.Anson"
"A.K.Powell"
_chemical_name_systematic
;
catena-[\b-dodecakis(\m~3~-Methanoato)-hexa-zinc(ii)]
;
_chemical_name_common
;
beta-zinc formate
;
_cell_volume   1279.841
_exptl_crystal_colour 'colorless'
_exptl_crystal_density_diffrn 2.42
_exptl_special_details
;
P21 polymorph

;
_exptl_crystal_description 'needle'
_diffrn_ambient_temperature 200
#These two values have been output from a single CSD field.
_refine_ls_R_factor_gt 0.0477
_refine_ls_wR_factor_gt 0.0477
_symmetry_cell_setting monoclinic
_symmetry_space_group_name_H-M 'P 21'
_symmetry_Int_Tables_number 4
loop_
_symmetry_equiv_pos_site_id
_symmetry_equiv_pos_as_xyz
1 x,y,z
2 -x,1/2+y,-z
_cell_length_a 7.6418(11)
_cell_length_b 13.6087(16)
_cell_length_c 12.5559(19)
_cell_angle_alpha 90
_cell_angle_beta 101.433(12)
_cell_angle_gamma 90
_cell_formula_units_Z 2
loop_
_atom_type_symbol
_atom_type_radius_bond
C 0.68
H 0.23
O 0.68
Zn 1.32
loop_
_atom_site_label
_atom_site_type_symbol
_atom_site_fract_x
_atom_site_fract_y
_atom_site_fract_z
Zn1 Zn 0.50012(14) 0.48855(8) -0.10154(9)
Zn2 Zn 0.19692(15) 0.38249(8) 0.00038(9)
Zn3 Zn 0.90839(14) 0.50456(8) 0.07440(8)
Zn4 Zn 0.72824(14) 0.73775(8) -0.42615(8)
Zn5 Zn 0.36705(14) 0.62428(8) -0.52246(9)
Zn6 Zn -0.01328(14) 0.25403(8) -0.41546(8)
O1 O 0.2725(9) 0.4019(5) -0.1465(5)
C1 C 0.2283(14) 0.3591(8) -0.2381(7)
H1 H 0.30920 0.36100 -0.28450
O2 O 0.0871(10) 0.3155(6) -0.2696(6)
O3 O 0.4704(10) 0.4203(5) 0.0473(6)
C2 C 0.5791(14) 0.4114(8) 0.1377(8)
H2 H 0.53470 0.38300 0.19430
O4 O 0.7367(10) 0.4365(6) 0.1579(6)
O5 O 0.4813(10) 0.5373(6) -0.2619(6)
C3 C 0.6015(14) 0.5762(8) -0.2979(8)
H3 H 0.71470 0.57810 -0.25380
O6 O 0.5813(9) 0.6144(5) -0.3922(5)
O7 O 0.329(1) 0.6057(6) -0.0847(6)
C4 C 0.1927(14) 0.6081(7) -0.043(1)
H4 H 0.12980 0.66690 -0.04720
O8 O 0.1349(10) 0.5378(5) 0.0037(6)
O9 O 0.7141(9) 0.5799(5) -0.0294(6)
C5 C 0.6985(14) 0.6742(8) -0.0406(8)
H5 H 0.59520 0.69900 -0.08420
O10 O 0.8138(9) 0.7333(6) 0.0034(5)
O11 O 0.1253(9) 0.4012(5) 0.1499(5)
C6 C 0.1487(13) 0.3601(8) 0.2418(8)
H6 H 0.06070 0.36840 0.28270
O12 O 0.2831(9) 0.3083(6) 0.2825(6)
O13 O 0.9150(9) 0.3920(6) -0.0424(6)
C7 C 0.8059(13) 0.3501(8) -0.1150(8)
H7 H 0.84850 0.29930 -0.15250
O14 O 0.6438(10) 0.3707(6) -0.1414(6)
O15 O 0.7790(9) 0.6712(5) -0.5703(5)
C8 C 0.6844(13) 0.6121(8) -0.6352(8)
H8 H 0.73120 0.58890 -0.69350
O16 O 0.5337(10) 0.5826(6) -0.6270(6)
O17 O 0.8733(9) 0.8455(5) -0.4921(6)
C9 C 0.8502(14) 0.9382(7) -0.5015(8)
H9 H 0.92920 0.97490 -0.53310
O18 O 0.7258(10) 0.9817(5) -0.4701(6)
O19 O 0.4680(9) 0.7696(5) -0.5092(6)
C10 C 0.3785(14) 0.8495(8) -0.5214(10)
H10 H 0.44130 0.90730 -0.50140
O20 O 0.2152(10) 0.8573(5) -0.5576(7)
O21 O 1.1534(9) 0.6759(5) -0.4500(5)
C11 C 1.1122(13) 0.6553(7) -0.3589(8)
H11 H 1.19740 0.62440 -0.30630
O22 O 0.9621(10) 0.6744(6) -0.3364(6)
O23 O 1.1680(9) 0.6597(5) 0.3422(5)
C12 C 1.1288(13) 0.6080(7) 0.2550(8)
H12 H 1.22140 0.57590 0.23120
O24 O 0.9757(10) 0.5982(5) 0.2006(5)
Zn2A Zn 0.80308(15) 0.88249(8) -0.00038(9)
Zn2* Zn 1.19692(15) 0.38249(8) 0.00038(9)
Zn3* Zn -0.09161(14) 0.50456(8) 0.07440(8)
Zn4A Zn 0.27176(14) 0.23775(8) 0.42615(8)
Zn5A Zn 0.63295(14) 1.12428(8) -0.47754(9)
Zn5* Zn 1.36705(14) 0.62428(8) -0.52246(9)
Zn5** Zn 1.36705(14) 0.62428(8) 0.47754(9)
Zn6A Zn 1.01328(14) 0.75403(8) -0.58454(8)
Zn6A* Zn 0.01328(14) 0.75403(8) -0.58454(8)
Zn6A** Zn 1.01328(14) 0.75403(8) 0.41546(8)
O8* O 1.1349(10) 0.5378(5) 0.0037(6)
O10A O 0.1862(9) 0.2333(6) -0.0034(5)
O11* O 1.1253(9) 0.4012(5) 0.1499(5)
O12A O 0.7169(9) 0.8083(6) -0.2825(6)
O13* O -0.0850(9) 0.3920(6) -0.0424(6)
O15A O 0.2210(9) 0.1712(5) -0.4297(5)
O17A O 0.1267(9) 0.3455(5) -0.5079(6)
O18A O 0.2742(10) 0.4817(5) -0.5299(6)
O20A O -0.2152(10) 0.3573(5) -0.4424(7)
O21* O 0.1534(9) 0.6759(5) -0.4500(5)
O21A O -0.1534(9) 0.1759(5) -0.5500(5)
O23* O 0.1680(9) 0.6597(5) -0.6578(5)
O23A O -0.1680(9) 0.1597(5) -0.3422(5)
#END
